42
75
52	3
51	1
50	2
49	2
47	5
46	2
44	6
43	2
42	1
41	2
39	2
38	1
37	3
36	3
35	1
34	1
33	3
32	3
31	2
30	1
29	1
28	2
27	2
25	2
24	1
23	2
22	3
21	2
20	3
19	3
18	2
17	3
16	4
15	3
14	3
13	3
12	3
11	3
10	3
9	2
8	1
7	3
